NAME: ../File/prFile/tspFile/tsp_file17.tsp
COMMENT: TSP file generated by Python
TYPE: TSP
DIMENSION: 30
EDGE_WEIGHT_TYPE: EUC_2D
NODE_COORD_SECTION
1 82 1
2 24 61
3 27 51
4 30 27
5 17 67
6 36 51
7 44 82
8 54 71
9 46 39
10 66 20
11 54 56
12 16 38
13 98 83
14 4 4
15 92 14
16 19 59
17 26 91
18 81 40
19 79 15
20 31 15
21 55 35
22 27 86
23 31 23
24 47 24
25 46 78
26 32 12
27 46 68
28 82 76
29 17 91
30 55 37
EOF
